benchmarks/bfuzz0/157312156745445378404262672800017212.smt2
(set-logic QF_FP)
(declare-const x0 (_ FloatingPoint 8 24))
(declare-const x1 (_ FloatingPoint 8 24))
(declare-const x2 (_ FloatingPoint 8 24))
(declare-const x3 (_ FloatingPoint 8 24))
(declare-const x4 (_ FloatingPoint 8 24))
(declare-const x5 (_ FloatingPoint 8 24))
(declare-const x6 (_ FloatingPoint 8 24))
(declare-const x7 (_ FloatingPoint 8 24))
(declare-const x8 (_ FloatingPoint 8 24))
(declare-const x9 (_ FloatingPoint 8 24))
(declare-const x10 (_ FloatingPoint 8 24))
(declare-const x11 (_ FloatingPoint 8 24))
(declare-const x12 (_ FloatingPoint 8 24))
(declare-const x13 (_ FloatingPoint 8 24))
(declare-const x14 (_ FloatingPoint 8 24))
(declare-const x15 (_ FloatingPoint 8 24))
(declare-const x16 (_ FloatingPoint 8 24))
(declare-const x17 (_ FloatingPoint 8 24))
(declare-const x18 (_ FloatingPoint 8 24))
(declare-const x19 (_ FloatingPoint 8 24))
(declare-const x20 (_ FloatingPoint 8 24))
(declare-const x21 (_ FloatingPoint 8 24))
(declare-const x22 (_ FloatingPoint 8 24))
(declare-const x23 (_ FloatingPoint 8 24))
(assert (fp.lt (fp.neg (fp.sub RNE (fp.sub RNE x15 x21) (fp.neg x13))) (fp.div RNE (fp.add RNE (fp.sub RNE x17 x17) (fp.sub RNE x10 x7)) (fp.sub RNE (fp.neg x19) (fp.add RNE x0 x15)))))
(assert (fp.geq (fp.div RNE (fp.mul RNE (fp.add RNE x9 x4) (fp.mul RNE x21 x13)) (fp.add RNE (fp.mul RNE x15 x12) (fp.mul RNE x19 x2))) (fp.neg (fp.neg (fp.add RNE x12 x4)))))
(assert (fp.leq (fp.div RNE (fp.mul RNE (fp.sub RNE x5 x18) (fp.sub RNE x7 x13)) (fp.neg (fp.sub RNE x5 x14))) (fp.div RNE (fp.mul RNE (fp.div RNE x17 x3) (fp.mul RNE x15 x2)) (fp.add RNE (fp.sub RNE x8 x19) (fp.sub RNE x14 x16)))))
(check-sat)
