db/data/157312156745445378404262672800017212.z3.out
sat
-------------------
284.877460242
